92
raw_data/mm-rcpsp/MMLIB50/J5019_2.mm
Time limit set to 60 seconds
Running CP solver
/home/omastto1/General-Optimization-Solver/src/solvers/mmrcpsp.py:42(stream:278:6): Warning: Cumulative expression 'pulse': height is zero, expression is zero everywhere.
                                                                                               VarCumulAtom_421 = pulse(task_0_mode_0, 0)
/home/omastto1/General-Optimization-Solver/src/solvers/mmrcpsp.py:42(stream:278:3907): Warning: Cumulative expression 'pulse': height is zero, expression is zero everywhere.
                                                                                                  VarCumulAtom_572 = pulse(task_51_mode_0, 0)
/home/omastto1/General-Optimization-Solver/src/solvers/mmrcpsp.py:42(stream:279:6): Warning: Cumulative expression 'pulse': height is zero, expression is zero everywhere.
                                                                                               VarCumulAtom_576 = pulse(task_0_mode_0, 0)
/home/omastto1/General-Optimization-Solver/src/solvers/mmrcpsp.py:42(stream:279:3914): Warning: Cumulative expression 'pulse': height is zero, expression is zero everywhere.
                                                                                                  VarCumulAtom_727 = pulse(task_51_mode_0, 0)
 ! --------------------------------------------------- CP Optimizer 20.1.0.0 --
 ! Minimization problem - 205 variables, 292 constraints
 ! TimeLimit            = 60
 ! Workers              = 14
 ! LogVerbosity         = Terse
 ! Initial process time : 0.01s (0.01s extraction + 0.00s propagation)
 !  . Log search space  : 517.9 (before), 517.9 (after)
 !  . Memory usage      : 1.3 MB (before), 1.3 MB (after)
 ! Using parallel search with 14 workers.
 ! ----------------------------------------------------------------------------
 !          Best Branches  Non-fixed    W       Branch decision
                        0        205                 -
 + New bound is 27
 ! Using iterative diving.
 ! Using temporal relaxation.
 *            34      878  0.82s        1      (gap is 20.59%)
 *            32      697  0.82s        3      (gap is 15.62%)
 *            31      880  0.82s        3      (gap is 12.90%)
 *            29     2603  1.44s        1      (gap is 6.90%)
 *            28     2455  1.44s        3      (gap is 3.57%)
 *            27     5747  2.55s        1      (gap is 0.00%)
 ! ----------------------------------------------------------------------------
 ! Search completed, 6 solutions found.
 ! Best objective         : 27 (optimal - effective tol. is 0)
 ! Best bound             : 27
 ! ----------------------------------------------------------------------------
 ! Number of branches     : 191942
 ! Number of fails        : 33121
 ! Total memory usage     : 18.6 MB (18.5 MB CP Optimizer + 0.2 MB Concert)
 ! Time spent in solve    : 3.00s (2.99s engine + 0.01s extraction)
 ! Search speed (br. / s) : 64410.1
 ! ----------------------------------------------------------------------------
task_0: (start=0, end=0, size=0, length=0)
Task 0 is scheduled in mode 0 from 0 to 0
task_1: (start=0, end=4, size=4, length=4)
Task 1 is scheduled in mode 2 from 0 to 4
task_2: (start=0, end=6, size=6, length=6)
Task 2 is scheduled in mode 0 from 0 to 6
task_3: (start=0, end=1, size=1, length=1)
Task 3 is scheduled in mode 0 from 0 to 1
task_4: (start=0, end=9, size=9, length=9)
Task 4 is scheduled in mode 1 from 0 to 9
task_5: (start=0, end=8, size=8, length=8)
Task 5 is scheduled in mode 2 from 0 to 8
task_6: (start=0, end=4, size=4, length=4)
Task 6 is scheduled in mode 0 from 0 to 4
task_7: (start=0, end=4, size=4, length=4)
Task 7 is scheduled in mode 1 from 0 to 4
task_8: (start=0, end=4, size=4, length=4)
Task 8 is scheduled in mode 0 from 0 to 4
task_9: (start=0, end=6, size=6, length=6)
Task 9 is scheduled in mode 1 from 0 to 6
task_10: (start=0, end=4, size=4, length=4)
Task 10 is scheduled in mode 1 from 0 to 4
task_11: (start=6, end=10, size=4, length=4)
Task 11 is scheduled in mode 1 from 6 to 10
task_12: (start=4, end=11, size=7, length=7)
Task 12 is scheduled in mode 2 from 4 to 11
task_13: (start=4, end=13, size=9, length=9)
Task 13 is scheduled in mode 2 from 4 to 13
task_14: (start=4, end=11, size=7, length=7)
Task 14 is scheduled in mode 2 from 4 to 11
task_15: (start=6, end=7, size=1, length=1)
Task 15 is scheduled in mode 0 from 6 to 7
task_16: (start=0, end=10, size=10, length=10)
Task 16 is scheduled in mode 2 from 0 to 10
task_17: (start=8, end=18, size=10, length=10)
Task 17 is scheduled in mode 2 from 8 to 18
task_18: (start=9, end=17, size=8, length=8)
Task 18 is scheduled in mode 2 from 9 to 17
task_19: (start=8, end=18, size=10, length=10)
Task 19 is scheduled in mode 2 from 8 to 18
task_20: (start=14, end=17, size=3, length=3)
Task 20 is scheduled in mode 1 from 14 to 17
task_21: (start=10, end=12, size=2, length=2)
Task 21 is scheduled in mode 1 from 10 to 12
task_22: (start=6, end=9, size=3, length=3)
Task 22 is scheduled in mode 1 from 6 to 9
task_23: (start=7, end=14, size=7, length=7)
Task 23 is scheduled in mode 0 from 7 to 14
task_24: (start=4, end=11, size=7, length=7)
Task 24 is scheduled in mode 1 from 4 to 11
task_25: (start=11, end=18, size=7, length=7)
Task 25 is scheduled in mode 1 from 11 to 18
task_26: (start=11, end=17, size=6, length=6)
Task 26 is scheduled in mode 0 from 11 to 17
task_27: (start=9, end=17, size=8, length=8)
Task 27 is scheduled in mode 2 from 9 to 17
task_28: (start=13, end=19, size=6, length=6)
Task 28 is scheduled in mode 2 from 13 to 19
task_29: (start=12, end=19, size=7, length=7)
Task 29 is scheduled in mode 2 from 12 to 19
task_30: (start=10, end=18, size=8, length=8)
Task 30 is scheduled in mode 1 from 10 to 18
task_31: (start=15, end=19, size=4, length=4)
Task 31 is scheduled in mode 0 from 15 to 19
task_32: (start=11, end=17, size=6, length=6)
Task 32 is scheduled in mode 2 from 11 to 17
task_33: (start=9, end=14, size=5, length=5)
Task 33 is scheduled in mode 1 from 9 to 14
task_34: (start=19, end=27, size=8, length=8)
Task 34 is scheduled in mode 1 from 19 to 27
task_35: (start=21, end=27, size=6, length=6)
Task 35 is scheduled in mode 2 from 21 to 27
task_36: (start=18, end=27, size=9, length=9)
Task 36 is scheduled in mode 1 from 18 to 27
task_37: (start=20, end=27, size=7, length=7)
Task 37 is scheduled in mode 1 from 20 to 27
task_38: (start=17, end=27, size=10, length=10)
Task 38 is scheduled in mode 2 from 17 to 27
task_39: (start=19, end=26, size=7, length=7)
Task 39 is scheduled in mode 1 from 19 to 26
task_40: (start=18, end=26, size=8, length=8)
Task 40 is scheduled in mode 2 from 18 to 26
task_41: (start=18, end=27, size=9, length=9)
Task 41 is scheduled in mode 2 from 18 to 27
task_42: (start=17, end=27, size=10, length=10)
Task 42 is scheduled in mode 2 from 17 to 27
task_43: (start=17, end=22, size=5, length=5)
Task 43 is scheduled in mode 0 from 17 to 22
task_44: (start=14, end=20, size=6, length=6)
Task 44 is scheduled in mode 2 from 14 to 20
task_45: (start=22, end=27, size=5, length=5)
Task 45 is scheduled in mode 1 from 22 to 27
task_46: (start=17, end=25, size=8, length=8)
Task 46 is scheduled in mode 1 from 17 to 25
task_47: (start=9, end=14, size=5, length=5)
Task 47 is scheduled in mode 1 from 9 to 14
task_48: (start=13, end=15, size=2, length=2)
Task 48 is scheduled in mode 1 from 13 to 15
task_49: (start=17, end=26, size=9, length=9)
Task 49 is scheduled in mode 2 from 17 to 26
task_50: (start=17, end=21, size=4, length=4)
Task 50 is scheduled in mode 1 from 17 to 21
task_51: (start=27, end=27, size=0, length=0)
Task 51 is scheduled in mode 0 from 27 to 27
Optimal solution found
Objective value: 27
Solution is optimal.
